(set-logic QF_S)
(set-option :strings-exp true)
(set-option :produce-models true)
(declare-fun sigmaStar_0 () String)
(declare-fun literal_8 () String)
(declare-fun x_7 () String)
(declare-fun epsilon () String)
(declare-fun literal_2 () String)
(declare-fun literal_3 () String)
(declare-fun literal_4 () String)
(declare-fun x_9 () String)
(declare-fun literal_10 () String)
(declare-fun x_11 () String)
(assert (= literal_8 "\x74\x79\x70\x65\x2f"))
(assert (= epsilon ""))
(assert (= literal_2 "\x71\x74\x79\x70\x65"))
(assert (= literal_3 "\x72\x71\x70"))
(assert (= literal_4 "\x6d\x69\x73\x73\x69\x6e\x67\x74\x79\x70\x65"))
(assert (or (= x_7 epsilon) (= x_7 literal_2) (= x_7 literal_3) (= x_7 literal_4)))
(assert (= x_9 (str.++ literal_8 x_7)))
(assert (= literal_10 "\x2f\x65\x64\x69\x74\x71\x75\x65\x73\x74\x69\x6f\x6e\x2e\x70\x68\x70"))
(assert (= x_11 (str.++ x_9 literal_10)))
(assert (str.in.re x_11 (re.++ (re.* re.allchar) (re.++ (str.to.re "\x2f\x65\x76\x69\x6c") (re.* re.allchar)))))
(check-sat)
(get-model)
